c Standarized MaxSat Instance
c{
c "sha1sum": "d54c19eec38b8924d6ef62df794415cd1809fd11",
c "nvars": 140,
c "ncls": 1260,
c "nhards": 0,
c "nhard_len_stats":
c    { "min": 0, "max": 0, "ave": 0.00,
c      "stddev": 0.00 },
c "nsofts": 1260,
c "nsoft_len_stats":
c    { "min": 2, "max": 2, "ave": 2.00,
c      "stddev": 0.00 },
c "nsoft_wts": 1,
c "soft_wt_stats":
c    { "min": 1, "max": 1, "ave": 1.00,
c      "stddev": 0.00 }
c}
c------------------------------------------------------------
c strEdges: 189  randomEdges: 441 
c degrees:  2  3 
c girth: 10 max: 8.032766  
c Hgirth mixed MAXCUT instance
c generated from an undirected graph
c to solve unweighted MaxCut
p wcnf 140 1260 1261
1 45 19 0
1 -45 -19 0
1 45 117 0
1 -45 -117 0
1 43 51 0
1 -43 -51 0
1 43 108 0
1 -43 -108 0
1 50 47 0
1 -50 -47 0
1 50 44 0
1 -50 -44 0
1 74 10 0
1 -74 -10 0
1 74 15 0
1 -74 -15 0
1 74 87 0
1 -74 -87 0
1 2 15 0
1 -2 -15 0
1 2 30 0
1 -2 -30 0
1 2 51 0
1 -2 -51 0
1 112 11 0
1 -112 -11 0
1 112 5 0
1 -112 -5 0
1 112 111 0
1 -112 -111 0
1 80 44 0
1 -80 -44 0
1 80 20 0
1 -80 -20 0
1 100 36 0
1 -100 -36 0
1 100 123 0
1 -100 -123 0
1 9 71 0
1 -9 -71 0
1 9 40 0
1 -9 -40 0
1 9 120 0
1 -9 -120 0
1 27 41 0
1 -27 -41 0
1 27 44 0
1 -27 -44 0
1 27 46 0
1 -27 -46 0
1 32 67 0
1 -32 -67 0
1 32 47 0
1 -32 -47 0
1 32 140 0
1 -32 -140 0
1 6 40 0
1 -6 -40 0
1 6 46 0
1 -6 -46 0
1 6 90 0
1 -6 -90 0
1 38 77 0
1 -38 -77 0
1 38 138 0
1 -38 -138 0
1 38 96 0
1 -38 -96 0
1 133 4 0
1 -133 -4 0
1 133 25 0
1 -133 -25 0
1 133 11 0
1 -133 -11 0
1 69 92 0
1 -69 -92 0
1 69 23 0
1 -69 -23 0
1 69 52 0
1 -69 -52 0
1 34 79 0
1 -34 -79 0
1 34 78 0
1 -34 -78 0
1 34 94 0
1 -34 -94 0
1 17 123 0
1 -17 -123 0
1 17 128 0
1 -17 -128 0
1 17 8 0
1 -17 -8 0
1 107 140 0
1 -107 -140 0
1 107 4 0
1 -107 -4 0
1 95 39 0
1 -95 -39 0
1 95 70 0
1 -95 -70 0
1 95 68 0
1 -95 -68 0
1 98 22 0
1 -98 -22 0
1 98 103 0
1 -98 -103 0
1 98 64 0
1 -98 -64 0
1 99 138 0
1 -99 -138 0
1 99 29 0
1 -99 -29 0
1 99 48 0
1 -99 -48 0
1 59 109 0
1 -59 -109 0
1 59 64 0
1 -59 -64 0
1 59 5 0
1 -59 -5 0
1 58 56 0
1 -58 -56 0
1 58 10 0
1 -58 -10 0
1 58 3 0
1 -58 -3 0
1 132 129 0
1 -132 -129 0
1 132 8 0
1 -132 -8 0
1 132 39 0
1 -132 -39 0
1 115 62 0
1 -115 -62 0
1 115 79 0
1 -115 -79 0
1 115 130 0
1 -115 -130 0
1 127 84 0
1 -127 -84 0
1 127 54 0
1 -127 -54 0
1 26 83 0
1 -26 -83 0
1 26 22 0
1 -26 -22 0
1 26 113 0
1 -26 -113 0
1 86 102 0
1 -86 -102 0
1 86 68 0
1 -86 -68 0
1 86 67 0
1 -86 -67 0
1 49 48 0
1 -49 -48 0
1 49 24 0
1 -49 -24 0
1 118 23 0
1 -118 -23 0
1 118 109 0
1 -118 -109 0
1 42 131 0
1 -42 -131 0
1 42 21 0
1 -42 -21 0
1 42 30 0
1 -42 -30 0
1 101 120 0
1 -101 -120 0
1 101 33 0
1 -101 -33 0
1 101 129 0
1 -101 -129 0
1 7 104 0
1 -7 -104 0
1 7 92 0
1 -7 -92 0
1 85 117 0
1 -85 -117 0
1 85 36 0
1 -85 -36 0
1 114 96 0
1 -114 -96 0
1 114 91 0
1 -114 -91 0
1 114 62 0
1 -114 -62 0
1 137 54 0
1 -137 -54 0
1 137 67 0
1 -137 -67 0
1 137 19 0
1 -137 -19 0
1 57 113 0
1 -57 -113 0
1 57 89 0
1 -57 -89 0
1 57 131 0
1 -57 -131 0
1 116 31 0
1 -116 -31 0
1 116 55 0
1 -116 -55 0
1 116 90 0
1 -116 -90 0
1 18 91 0
1 -18 -91 0
1 18 11 0
1 -18 -11 0
1 18 21 0
1 -18 -21 0
1 135 88 0
1 -135 -88 0
1 135 25 0
1 -135 -25 0
1 135 39 0
1 -135 -39 0
1 61 5 0
1 -61 -5 0
1 61 84 0
1 -61 -84 0
1 61 71 0
1 -61 -71 0
1 124 24 0
1 -124 -24 0
1 124 130 0
1 -124 -130 0
1 66 103 0
1 -66 -103 0
1 66 4 0
1 -66 -4 0
1 16 89 0
1 -16 -89 0
1 16 56 0
1 -16 -56 0
1 16 14 0
1 -16 -14 0
1 1 70 0
1 -1 -70 0
1 1 48 0
1 -1 -48 0
1 28 94 0
1 -28 -94 0
1 28 83 0
1 -28 -83 0
1 28 71 0
1 -28 -71 0
1 35 52 0
1 -35 -52 0
1 35 78 0
1 -35 -78 0
1 121 3 0
1 -121 -3 0
1 121 111 0
1 -121 -111 0
1 121 31 0
1 -121 -31 0
1 119 30 0
1 -119 -30 0
1 119 109 0
1 -119 -109 0
1 65 90 0
1 -65 -90 0
1 65 73 0
1 -65 -73 0
1 65 24 0
1 -65 -24 0
1 13 68 0
1 -13 -68 0
1 13 136 0
1 -13 -136 0
1 13 22 0
1 -13 -22 0
1 63 73 0
1 -63 -73 0
1 63 23 0
1 -63 -23 0
1 63 54 0
1 -63 -54 0
1 12 20 0
1 -12 -20 0
1 12 92 0
1 -12 -92 0
1 12 89 0
1 -12 -89 0
1 60 136 0
1 -60 -136 0
1 60 104 0
1 -60 -104 0
1 60 87 0
1 -60 -87 0
1 76 130 0
1 -76 -130 0
1 76 36 0
1 -76 -36 0
1 76 56 0
1 -76 -56 0
1 75 14 0
1 -75 -14 0
1 75 96 0
1 -75 -96 0
1 75 102 0
1 -75 -102 0
1 106 78 0
1 -106 -78 0
1 106 108 0
1 -106 -108 0
1 134 8 0
1 -134 -8 0
1 134 20 0
1 -134 -20 0
1 82 55 0
1 -82 -55 0
1 82 131 0
1 -82 -131 0
1 82 139 0
1 -82 -139 0
1 37 64 0
1 -37 -64 0
1 37 62 0
1 -37 -62 0
1 105 139 0
1 -105 -139 0
1 105 117 0
1 -105 -117 0
1 105 77 0
1 -105 -77 0
1 72 33 0
1 -72 -33 0
1 72 51 0
1 -72 -51 0
1 72 47 0
1 -72 -47 0
1 122 87 0
1 -122 -87 0
1 122 123 0
1 -122 -123 0
1 122 29 0
1 -122 -29 0
1 53 21 0
1 -53 -21 0
1 53 41 0
1 -53 -41 0
1 125 25 0
1 -125 -25 0
1 125 52 0
1 -125 -52 0
1 125 77 0
1 -125 -77 0
1 93 111 0
1 -93 -111 0
1 93 104 0
1 -93 -104 0
1 97 46 0
1 -97 -46 0
1 97 88 0
1 -97 -88 0
1 97 10 0
1 -97 -10 0
1 81 128 0
1 -81 -128 0
1 81 103 0
1 -81 -103 0
1 81 31 0
1 -81 -31 0
1 110 108 0
1 -110 -108 0
1 110 3 0
1 -110 -3 0
1 110 70 0
1 -110 -70 0
1 126 29 0
1 -126 -29 0
1 126 94 0
1 -126 -94 0
1 126 41 0
1 -126 -41 0
1 65 67 0
1 -65 -67 0
1 31 88 0
1 -31 -88 0
1 16 110 0
1 -16 -110 0
1 74 14 0
1 -74 -14 0
1 51 54 0
1 -51 -54 0
1 41 73 0
1 -41 -73 0
1 26 63 0
1 -26 -63 0
1 99 65 0
1 -99 -65 0
1 80 138 0
1 -80 -138 0
1 137 22 0
1 -137 -22 0
1 7 114 0
1 -7 -114 0
1 27 66 0
1 -27 -66 0
1 125 68 0
1 -125 -68 0
1 105 128 0
1 -105 -128 0
1 92 29 0
1 -92 -29 0
1 6 98 0
1 -6 -98 0
1 84 103 0
1 -84 -103 0
1 18 31 0
1 -18 -31 0
1 27 96 0
1 -27 -96 0
1 122 19 0
1 -122 -19 0
1 27 57 0
1 -27 -57 0
1 76 53 0
1 -76 -53 0
1 92 8 0
1 -92 -8 0
1 43 81 0
1 -43 -81 0
1 77 83 0
1 -77 -83 0
1 34 35 0
1 -34 -35 0
1 16 79 0
1 -16 -79 0
1 64 108 0
1 -64 -108 0
1 69 95 0
1 -69 -95 0
1 107 137 0
1 -107 -137 0
1 43 102 0
1 -43 -102 0
1 70 90 0
1 -70 -90 0
1 135 47 0
1 -135 -47 0
1 78 55 0
1 -78 -55 0
1 60 8 0
1 -60 -8 0
1 50 114 0
1 -50 -114 0
1 115 19 0
1 -115 -19 0
1 17 94 0
1 -17 -94 0
1 97 136 0
1 -97 -136 0
1 102 96 0
1 -102 -96 0
1 106 128 0
1 -106 -128 0
1 113 25 0
1 -113 -25 0
1 11 89 0
1 -11 -89 0
1 99 81 0
1 -99 -81 0
1 71 5 0
1 -71 -5 0
1 137 131 0
1 -137 -131 0
1 4 8 0
1 -4 -8 0
1 51 130 0
1 -51 -130 0
1 119 104 0
1 -119 -104 0
1 57 4 0
1 -57 -4 0
1 6 35 0
1 -6 -35 0
1 10 79 0
1 -10 -79 0
1 11 41 0
1 -11 -41 0
1 115 90 0
1 -115 -90 0
1 51 11 0
1 -51 -11 0
1 7 82 0
1 -7 -82 0
1 51 22 0
1 -51 -22 0
1 91 24 0
1 -91 -24 0
1 107 19 0
1 -107 -19 0
1 66 93 0
1 -66 -93 0
1 133 20 0
1 -133 -20 0
1 101 77 0
1 -101 -77 0
1 61 92 0
1 -61 -92 0
1 27 19 0
1 -27 -19 0
1 57 120 0
1 -57 -120 0
1 34 114 0
1 -34 -114 0
1 104 103 0
1 -104 -103 0
1 41 48 0
1 -41 -48 0
1 118 53 0
1 -118 -53 0
1 106 90 0
1 -106 -90 0
1 66 33 0
1 -66 -33 0
1 82 102 0
1 -82 -102 0
1 100 139 0
1 -100 -139 0
1 27 97 0
1 -27 -97 0
1 122 15 0
1 -122 -15 0
1 27 93 0
1 -27 -93 0
1 65 126 0
1 -65 -126 0
1 9 97 0
1 -9 -97 0
1 2 87 0
1 -2 -87 0
1 77 56 0
1 -77 -56 0
1 26 73 0
1 -26 -73 0
1 102 24 0
1 -102 -24 0
1 44 108 0
1 -44 -108 0
1 79 84 0
1 -79 -84 0
1 127 124 0
1 -127 -124 0
1 95 51 0
1 -95 -51 0
1 9 131 0
1 -9 -131 0
1 124 125 0
1 -124 -125 0
1 137 29 0
1 -137 -29 0
1 107 101 0
1 -107 -101 0
1 112 55 0
1 -112 -55 0
1 74 21 0
1 -74 -21 0
1 50 78 0
1 -50 -78 0
1 134 90 0
1 -134 -90 0
1 115 81 0
1 -115 -81 0
1 47 20 0
1 -47 -20 0
1 47 56 0
1 -47 -56 0
1 135 90 0
1 -135 -90 0
1 12 117 0
1 -12 -117 0
1 107 66 0
1 -107 -66 0
1 90 139 0
1 -90 -139 0
1 95 118 0
1 -95 -118 0
1 99 64 0
1 -99 -64 0
1 72 128 0
1 -72 -128 0
1 52 73 0
1 -52 -73 0
1 22 104 0
1 -22 -104 0
1 6 76 0
1 -6 -76 0
1 56 89 0
1 -56 -89 0
1 45 111 0
1 -45 -111 0
1 127 77 0
1 -127 -77 0
1 11 5 0
1 -11 -5 0
1 51 10 0
1 -51 -10 0
1 107 139 0
1 -107 -139 0
1 96 64 0
1 -96 -64 0
1 65 52 0
1 -65 -52 0
1 99 73 0
1 -99 -73 0
1 93 8 0
1 -93 -8 0
1 48 96 0
1 -48 -96 0
1 124 12 0
1 -124 -12 0
1 120 96 0
1 -120 -96 0
1 43 66 0
1 -43 -66 0
1 42 20 0
1 -42 -20 0
1 18 54 0
1 -18 -54 0
1 137 75 0
1 -137 -75 0
1 86 104 0
1 -86 -104 0
1 77 96 0
1 -77 -96 0
1 120 8 0
1 -120 -8 0
1 133 12 0
1 -133 -12 0
1 99 42 0
1 -99 -42 0
1 11 25 0
1 -11 -25 0
1 51 138 0
1 -51 -138 0
1 80 19 0
1 -80 -19 0
1 34 44 0
1 -34 -44 0
1 85 83 0
1 -85 -83 0
1 86 126 0
1 -86 -126 0
1 6 62 0
1 -6 -62 0
1 16 41 0
1 -16 -41 0
1 82 56 0
1 -82 -56 0
1 105 110 0
1 -105 -110 0
1 43 124 0
1 -43 -124 0
1 69 121 0
1 -69 -121 0
1 73 130 0
1 -73 -130 0
1 118 124 0
1 -118 -124 0
1 69 48 0
1 -69 -48 0
1 98 56 0
1 -98 -56 0
1 45 20 0
1 -45 -20 0
1 37 73 0
1 -37 -73 0
1 74 113 0
1 -74 -113 0
1 116 18 0
1 -116 -18 0
1 45 42 0
1 -45 -42 0
1 17 16 0
1 -17 -16 0
1 98 19 0
1 -98 -19 0
1 114 88 0
1 -114 -88 0
1 86 105 0
1 -86 -105 0
1 130 8 0
1 -130 -8 0
1 120 104 0
1 -120 -104 0
1 50 38 0
1 -50 -38 0
1 57 68 0
1 -57 -68 0
1 76 67 0
1 -76 -67 0
1 84 104 0
1 -84 -104 0
1 127 55 0
1 -127 -55 0
1 27 128 0
1 -27 -128 0
1 102 73 0
1 -102 -73 0
1 76 19 0
1 -76 -19 0
1 51 108 0
1 -51 -108 0
1 69 94 0
1 -69 -94 0
1 53 84 0
1 -53 -84 0
1 4 23 0
1 -4 -23 0
1 114 24 0
1 -114 -24 0
1 58 42 0
1 -58 -42 0
1 42 83 0
1 -42 -83 0
1 81 129 0
1 -81 -129 0
1 72 110 0
1 -72 -110 0
1 106 97 0
1 -106 -97 0
1 6 54 0
1 -6 -54 0
1 92 128 0
1 -92 -128 0
1 80 81 0
1 -80 -81 0
1 80 9 0
1 -80 -9 0
1 124 84 0
1 -124 -84 0
1 58 60 0
1 -58 -60 0
1 48 8 0
1 -48 -8 0
1 123 131 0
1 -123 -131 0
1 19 96 0
1 -19 -96 0
1 32 22 0
1 -32 -22 0
1 2 112 0
1 -2 -112 0
1 15 90 0
1 -15 -90 0
1 17 106 0
1 -17 -106 0
1 50 80 0
1 -50 -80 0
1 127 134 0
1 -127 -134 0
1 80 91 0
1 -80 -91 0
1 53 40 0
1 -53 -40 0
1 37 11 0
1 -37 -11 0
1 32 57 0
1 -32 -57 0
1 49 1 0
1 -49 -1 0
1 47 140 0
1 -47 -140 0
1 101 28 0
1 -101 -28 0
1 43 130 0
1 -43 -130 0
1 2 35 0
1 -2 -35 0
1 74 12 0
1 -74 -12 0
1 134 125 0
1 -134 -125 0
1 115 83 0
1 -115 -83 0
1 63 87 0
1 -63 -87 0
1 16 64 0
1 -16 -64 0
1 115 3 0
1 -115 -3 0
1 124 79 0
1 -124 -79 0
1 112 24 0
1 -112 -24 0
1 63 70 0
1 -63 -70 0
1 36 109 0
1 -36 -109 0
1 85 62 0
1 -85 -62 0
1 32 117 0
1 -32 -117 0
1 65 136 0
1 -65 -136 0
1 35 46 0
1 -35 -46 0
1 4 30 0
1 -4 -30 0
1 135 131 0
1 -135 -131 0
1 103 87 0
1 -103 -87 0
1 132 121 0
1 -132 -121 0
1 27 139 0
1 -27 -139 0
1 5 89 0
1 -5 -89 0
1 18 66 0
1 -18 -66 0
1 107 53 0
1 -107 -53 0
1 72 140 0
1 -72 -140 0
1 102 33 0
1 -102 -33 0
1 138 64 0
1 -138 -64 0
1 12 77 0
1 -12 -77 0
1 43 33 0
1 -43 -33 0
1 124 33 0
1 -124 -33 0
1 12 22 0
1 -12 -22 0
1 9 34 0
1 -9 -34 0
1 2 9 0
1 -2 -9 0
1 38 139 0
1 -38 -139 0
1 100 14 0
1 -100 -14 0
1 56 55 0
1 -56 -55 0
1 20 108 0
1 -20 -108 0
1 65 134 0
1 -65 -134 0
1 122 53 0
1 -122 -53 0
1 17 3 0
1 -17 -3 0
1 60 41 0
1 -60 -41 0
1 74 34 0
1 -74 -34 0
1 60 73 0
1 -60 -73 0
1 124 119 0
1 -124 -119 0
1 112 122 0
1 -112 -122 0
1 99 123 0
1 -99 -123 0
1 120 5 0
1 -120 -5 0
1 99 125 0
1 -99 -125 0
1 1 129 0
1 -1 -129 0
1 35 12 0
1 -35 -12 0
1 115 1 0
1 -115 -1 0
1 132 85 0
1 -132 -85 0
1 22 21 0
1 -22 -21 0
1 18 76 0
1 -18 -76 0
1 13 126 0
1 -13 -126 0
1 126 89 0
1 -126 -89 0
1 52 111 0
1 -52 -111 0
1 118 22 0
1 -118 -22 0
1 98 18 0
1 -98 -18 0
1 6 116 0
1 -6 -116 0
1 32 31 0
1 -32 -31 0
1 39 64 0
1 -39 -64 0
1 101 57 0
1 -101 -57 0
1 32 75 0
1 -32 -75 0
1 105 20 0
1 -105 -20 0
1 79 54 0
1 -79 -54 0
1 114 120 0
1 -114 -120 0
1 134 70 0
1 -134 -70 0
1 61 31 0
1 -61 -31 0
1 11 84 0
1 -11 -84 0
1 129 113 0
1 -129 -113 0
1 129 33 0
1 -129 -33 0
1 54 14 0
1 -54 -14 0
1 63 108 0
1 -63 -108 0
1 43 63 0
1 -43 -63 0
1 28 4 0
1 -28 -4 0
1 81 25 0
1 -81 -25 0
1 66 44 0
1 -66 -44 0
1 27 14 0
1 -27 -14 0
1 26 51 0
1 -26 -51 0
1 85 14 0
1 -85 -14 0
1 59 11 0
1 -59 -11 0
1 95 25 0
1 -95 -25 0
1 114 131 0
1 -114 -131 0
1 60 37 0
1 -60 -37 0
1 114 81 0
1 -114 -81 0
1 96 25 0
1 -96 -25 0
1 59 19 0
1 -59 -19 0
1 115 55 0
1 -115 -55 0
1 98 59 0
1 -98 -59 0
1 42 68 0
1 -42 -68 0
1 59 104 0
1 -59 -104 0
1 138 96 0
1 -138 -96 0
1 43 79 0
1 -43 -79 0
1 81 130 0
1 -81 -130 0
1 19 87 0
1 -19 -87 0
1 23 20 0
1 -23 -20 0
1 16 54 0
1 -16 -54 0
1 134 122 0
1 -134 -122 0
1 60 130 0
1 -60 -130 0
1 83 102 0
1 -83 -102 0
1 82 97 0
1 -82 -97 0
1 50 20 0
1 -50 -20 0
1 42 120 0
1 -42 -120 0
1 35 122 0
1 -35 -122 0
1 98 101 0
1 -98 -101 0
1 137 46 0
1 -137 -46 0
1 59 79 0
1 -59 -79 0
1 34 124 0
1 -34 -124 0
1 53 23 0
1 -53 -23 0
1 2 93 0
1 -2 -93 0
1 35 62 0
1 -35 -62 0
1 97 33 0
1 -97 -33 0
1 39 94 0
1 -39 -94 0
1 1 111 0
1 -1 -111 0
1 92 103 0
1 -92 -103 0
1 137 129 0
1 -137 -129 0
1 5 8 0
1 -5 -8 0
1 89 29 0
1 -89 -29 0
1 81 41 0
1 -81 -41 0
1 53 79 0
1 -53 -79 0
1 12 68 0
1 -12 -68 0
1 23 104 0
1 -23 -104 0
1 19 5 0
1 -19 -5 0
1 6 105 0
1 -6 -105 0
1 74 96 0
1 -74 -96 0
1 127 65 0
1 -127 -65 0
1 132 25 0
1 -132 -25 0
1 105 51 0
1 -105 -51 0
1 39 131 0
1 -39 -131 0
1 85 33 0
1 -85 -33 0
1 135 1 0
1 -135 -1 0
1 35 75 0
1 -35 -75 0
1 57 121 0
1 -57 -121 0
1 60 4 0
1 -60 -4 0
1 132 10 0
1 -132 -10 0
1 11 4 0
1 -11 -4 0
1 6 122 0
1 -6 -122 0
1 26 40 0
1 -26 -40 0
1 82 54 0
1 -82 -54 0
1 5 3 0
1 -5 -3 0
1 88 64 0
1 -88 -64 0
1 4 79 0
1 -4 -79 0
1 110 83 0
1 -110 -83 0
1 113 108 0
1 -113 -108 0
1 38 21 0
1 -38 -21 0
1 78 21 0
1 -78 -21 0
1 22 25 0
1 -22 -25 0
1 97 25 0
1 -97 -25 0
1 43 49 0
1 -43 -49 0
1 38 42 0
1 -38 -42 0
1 6 72 0
1 -6 -72 0
1 118 96 0
1 -118 -96 0
1 75 128 0
1 -75 -128 0
1 124 52 0
1 -124 -52 0
1 74 133 0
1 -74 -133 0
1 57 16 0
1 -57 -16 0
1 92 73 0
1 -92 -73 0
1 113 20 0
1 -113 -20 0
1 114 33 0
1 -114 -33 0
1 38 129 0
1 -38 -129 0
1 116 72 0
1 -116 -72 0
1 100 122 0
1 -100 -122 0
1 136 108 0
1 -136 -108 0
1 67 55 0
1 -67 -55 0
1 9 76 0
1 -9 -76 0
1 2 85 0
1 -2 -85 0
1 45 113 0
1 -45 -113 0
1 15 46 0
1 -15 -46 0
1 114 11 0
1 -114 -11 0
1 138 83 0
1 -138 -83 0
1 99 41 0
1 -99 -41 0
1 133 55 0
1 -133 -55 0
1 114 125 0
1 -114 -125 0
1 45 112 0
1 -45 -112 0
1 135 108 0
1 -135 -108 0
1 135 53 0
1 -135 -53 0
1 12 52 0
1 -12 -52 0
1 76 129 0
1 -76 -129 0
1 81 8 0
1 -81 -8 0
1 122 102 0
1 -122 -102 0
1 40 104 0
1 -40 -104 0
1 80 10 0
1 -80 -10 0
1 91 108 0
1 -91 -108 0
1 138 20 0
1 -138 -20 0
1 42 19 0
1 -42 -19 0
1 71 111 0
1 -71 -111 0
1 26 48 0
1 -26 -48 0
1 35 97 0
1 -35 -97 0
1 2 94 0
1 -2 -94 0
1 99 23 0
1 -99 -23 0
1 61 134 0
1 -61 -134 0
1 119 55 0
1 -119 -55 0
1 69 122 0
1 -69 -122 0
1 97 96 0
1 -97 -96 0
1 13 89 0
1 -13 -89 0
1 86 14 0
1 -86 -14 0
1 1 30 0
1 -1 -30 0
1 115 122 0
1 -115 -122 0
1 132 33 0
1 -132 -33 0
1 103 33 0
1 -103 -33 0
1 100 98 0
1 -100 -98 0
1 45 139 0
1 -45 -139 0
1 80 130 0
1 -80 -130 0
1 58 66 0
1 -58 -66 0
1 43 28 0
1 -43 -28 0
1 135 11 0
1 -135 -11 0
1 112 15 0
1 -112 -15 0
1 2 126 0
1 -2 -126 0
1 112 52 0
1 -112 -52 0
1 74 77 0
1 -74 -77 0
1 80 100 0
1 -80 -100 0
1 131 103 0
1 -131 -103 0
1 49 13 0
1 -49 -13 0
1 63 136 0
1 -63 -136 0
1 117 64 0
1 -117 -64 0
1 2 5 0
1 -2 -5 0
1 57 71 0
1 -57 -71 0
1 13 4 0
1 -13 -4 0
1 122 67 0
1 -122 -67 0
1 49 54 0
1 -49 -54 0
1 16 97 0
1 -16 -97 0
1 38 5 0
1 -38 -5 0
1 116 25 0
1 -116 -25 0
1 117 94 0
1 -117 -94 0
1 69 26 0
1 -69 -26 0
1 7 75 0
1 -7 -75 0
1 40 4 0
1 -40 -4 0
1 3 30 0
1 -3 -30 0
1 56 94 0
1 -56 -94 0
1 123 23 0
1 -123 -23 0
1 133 103 0
1 -133 -103 0
1 75 40 0
1 -75 -40 0
1 74 27 0
1 -74 -27 0
1 123 20 0
1 -123 -20 0
1 65 51 0
1 -65 -51 0
1 19 131 0
1 -19 -131 0
1 115 109 0
1 -115 -109 0
1 105 14 0
1 -105 -14 0
1 137 124 0
1 -137 -124 0
1 27 132 0
1 -27 -132 0
1 133 101 0
1 -133 -101 0
1 7 97 0
1 -7 -97 0
1 40 73 0
1 -40 -73 0
1 100 113 0
1 -100 -113 0
